\Problem name: compact

Minimize
OBJROW: C
Subject To
ord(0,1):  - x(0,0) + x(0,1) >= 10
ord(0,2):  - x(0,1) + x(0,2) >= 4
ord(1,1):  x(1,1) - x(1,2) >= 2
ord(1,2):  x(1,0) - x(1,1) >= 7
ord(2,1):  - x(2,1) + x(2,2) >= 10
ord(2,2):  x(2,0) - x(2,2) >= 1
triangle2(0,1,0):  y(0,1,0) + y(1,0,0) = 1
triangle2(0,1,1):  y(0,1,1) + y(1,0,1) = 1
triangle2(0,1,2):  y(0,1,2) + y(1,0,2) = 1
triangle2(0,2,0):  y(0,2,0) + y(2,0,0) = 1
triangle2(0,2,1):  y(0,2,1) + y(2,0,1) = 1
triangle2(0,2,2):  y(0,2,2) + y(2,0,2) = 1
triangle2(1,2,0):  y(1,2,0) + y(2,1,0) = 1
triangle2(1,2,1):  y(1,2,1) + y(2,1,1) = 1
triangle2(1,2,2):  y(1,2,2) + y(2,1,2) = 1
MCLinV(0,1,0):  x(0,0) - v(0,1,0) - x(1,0) = 6
MCLinV(1,0,0):  - x(0,0) - v(1,0,0) + x(1,0) = 10
MCLin1(0,1,0):  u(0,1,0) >= -0
MCLin2(0,1,0):  -54 y(1,0,0) - u(0,1,0) <= -0
MCLin3(0,1,0):  21 y(1,0,0) + v(0,1,0) - u(0,1,0) <= 21
MCLin4(0,1,0):  21 y(1,0,0) - u(0,1,0) >= -0
MCLin5(0,1,0):  -54 y(1,0,0) + v(0,1,0) - u(0,1,0) >= -54
MCLin6(1,0,0):  u(1,0,0) >= -0
MCLin7(1,0,0):  -37 y(0,1,0) - u(1,0,0) <= -0
MCLin8(1,0,0):  38 y(0,1,0) + v(1,0,0) - u(1,0,0) <= 38
MCLin9(1,0,0):  38 y(0,1,0) - u(1,0,0) >= -0
MCLin10(1,0,0):  -37 y(0,1,0) + v(1,0,0) - u(1,0,0) >= -37
MCLinV(0,1,1):  x(0,1) - v(0,1,1) - x(1,1) = 7
MCLinV(1,0,1):  - x(0,1) - v(1,0,1) + x(1,1) = 4
MCLin1(0,1,1):  u(0,1,1) >= -0
MCLin2(0,1,1):  -38 y(1,0,1) - u(0,1,1) <= -0
MCLin3(0,1,1):  37 y(1,0,1) + v(0,1,1) - u(0,1,1) <= 37
MCLin4(0,1,1):  37 y(1,0,1) - u(0,1,1) >= -0
MCLin5(0,1,1):  -38 y(1,0,1) + v(0,1,1) - u(0,1,1) >= -38
MCLin6(1,0,1):  u(1,0,1) >= -0
MCLin7(1,0,1):  -48 y(0,1,1) - u(1,0,1) <= -0
MCLin8(1,0,1):  27 y(0,1,1) + v(1,0,1) - u(1,0,1) <= 27
MCLin9(1,0,1):  27 y(0,1,1) - u(1,0,1) >= -0
MCLin10(1,0,1):  -48 y(0,1,1) + v(1,0,1) - u(1,0,1) >= -48
MCLinV(0,1,2):  x(0,2) - v(0,1,2) - x(1,2) = 2
MCLinV(1,0,2):  - x(0,2) - v(1,0,2) + x(1,2) = 4
MCLin1(0,1,2):  u(0,1,2) >= -0
MCLin2(0,1,2):  -27 y(1,0,2) - u(0,1,2) <= -0
MCLin3(0,1,2):  48 y(1,0,2) + v(0,1,2) - u(0,1,2) <= 48
MCLin4(0,1,2):  48 y(1,0,2) - u(0,1,2) >= -0
MCLin5(0,1,2):  -27 y(1,0,2) + v(0,1,2) - u(0,1,2) >= -27
MCLin6(1,0,2):  u(1,0,2) >= -0
MCLin7(1,0,2):  -54 y(0,1,2) - u(1,0,2) <= -0
MCLin8(1,0,2):  21 y(0,1,2) + v(1,0,2) - u(1,0,2) <= 21
MCLin9(1,0,2):  21 y(0,1,2) - u(1,0,2) >= -0
MCLin10(1,0,2):  -54 y(0,1,2) + v(1,0,2) - u(1,0,2) >= -54
MCLinV(0,2,0):  x(0,0) - v(0,2,0) - x(2,0) = 10
MCLinV(2,0,0):  - x(0,0) - v(2,0,0) + x(2,0) = 10
MCLin1(0,2,0):  u(0,2,0) >= -0
MCLin2(0,2,0):  -54 y(2,0,0) - u(0,2,0) <= -0
MCLin3(0,2,0):  15 y(2,0,0) + v(0,2,0) - u(0,2,0) <= 15
MCLin4(0,2,0):  15 y(2,0,0) - u(0,2,0) >= -0
MCLin5(0,2,0):  -54 y(2,0,0) + v(0,2,0) - u(0,2,0) >= -54
MCLin6(2,0,0):  u(2,0,0) >= -0
MCLin7(2,0,0):  -35 y(0,2,0) - u(2,0,0) <= -0
MCLin8(2,0,0):  34 y(0,2,0) + v(2,0,0) - u(2,0,0) <= 34
MCLin9(2,0,0):  34 y(0,2,0) - u(2,0,0) >= -0
MCLin10(2,0,0):  -35 y(0,2,0) + v(2,0,0) - u(2,0,0) >= -35
MCLinV(0,2,1):  x(0,1) - v(0,2,1) - x(2,1) = 10
MCLinV(2,0,1):  - x(0,1) - v(2,0,1) + x(2,1) = 4
MCLin1(0,2,1):  u(0,2,1) >= -0
MCLin2(0,2,1):  -33 y(2,0,1) - u(0,2,1) <= -0
MCLin3(0,2,1):  36 y(2,0,1) + v(0,2,1) - u(0,2,1) <= 36
MCLin4(0,2,1):  36 y(2,0,1) - u(0,2,1) >= -0
MCLin5(0,2,1):  -33 y(2,0,1) + v(0,2,1) - u(0,2,1) >= -33
MCLin6(2,0,1):  u(2,0,1) >= -0
MCLin7(2,0,1):  -50 y(0,2,1) - u(2,0,1) <= -0
MCLin8(2,0,1):  19 y(0,2,1) + v(2,0,1) - u(2,0,1) <= 19
MCLin9(2,0,1):  19 y(0,2,1) - u(2,0,1) >= -0
MCLin10(2,0,1):  -50 y(0,2,1) + v(2,0,1) - u(2,0,1) >= -50
MCLinV(0,2,2):  x(0,2) - v(0,2,2) - x(2,2) = 1
MCLinV(2,0,2):  - x(0,2) - v(2,0,2) + x(2,2) = 4
MCLin1(0,2,2):  u(0,2,2) >= -0
MCLin2(0,2,2):  -30 y(2,0,2) - u(0,2,2) <= -0
MCLin3(0,2,2):  39 y(2,0,2) + v(0,2,2) - u(0,2,2) <= 39
MCLin4(0,2,2):  39 y(2,0,2) - u(0,2,2) >= -0
MCLin5(0,2,2):  -30 y(2,0,2) + v(0,2,2) - u(0,2,2) >= -30
MCLin6(2,0,2):  u(2,0,2) >= -0
MCLin7(2,0,2):  -44 y(0,2,2) - u(2,0,2) <= -0
MCLin8(2,0,2):  25 y(0,2,2) + v(2,0,2) - u(2,0,2) <= 25
MCLin9(2,0,2):  25 y(0,2,2) - u(2,0,2) >= -0
MCLin10(2,0,2):  -44 y(0,2,2) + v(2,0,2) - u(2,0,2) >= -44
MCLinV(1,2,0):  x(1,0) - v(1,2,0) - x(2,0) = 10
MCLinV(2,1,0):  - x(1,0) - v(2,1,0) + x(2,0) = 6
MCLin1(1,2,0):  u(1,2,0) >= -0
MCLin2(1,2,0):  -45 y(2,1,0) - u(1,2,0) <= -0
MCLin3(1,2,0):  27 y(2,1,0) + v(1,2,0) - u(1,2,0) <= 27
MCLin4(1,2,0):  27 y(2,1,0) - u(1,2,0) >= -0
MCLin5(1,2,0):  -45 y(2,1,0) + v(1,2,0) - u(1,2,0) >= -45
MCLin6(2,1,0):  u(2,1,0) >= -0
MCLin7(2,1,0):  -43 y(1,2,0) - u(2,1,0) <= -0
MCLin8(2,1,0):  29 y(1,2,0) + v(2,1,0) - u(2,1,0) <= 29
MCLin9(2,1,0):  29 y(1,2,0) - u(2,1,0) >= -0
MCLin10(2,1,0):  -43 y(1,2,0) + v(2,1,0) - u(2,1,0) >= -43
MCLinV(1,2,1):  x(1,1) - v(1,2,1) - x(2,1) = 10
MCLinV(2,1,1):  - x(1,1) - v(2,1,1) + x(2,1) = 7
MCLin1(1,2,1):  u(1,2,1) >= -0
MCLin2(1,2,1):  -41 y(2,1,1) - u(1,2,1) <= -0
MCLin3(1,2,1):  31 y(2,1,1) + v(1,2,1) - u(1,2,1) <= 31
MCLin4(1,2,1):  31 y(2,1,1) - u(1,2,1) >= -0
MCLin5(1,2,1):  -41 y(2,1,1) + v(1,2,1) - u(1,2,1) >= -41
MCLin6(2,1,1):  u(2,1,1) >= -0
MCLin7(2,1,1):  -48 y(1,2,1) - u(2,1,1) <= -0
MCLin8(2,1,1):  24 y(1,2,1) + v(2,1,1) - u(2,1,1) <= 24
MCLin9(2,1,1):  24 y(1,2,1) - u(2,1,1) >= -0
MCLin10(2,1,1):  -48 y(1,2,1) + v(2,1,1) - u(2,1,1) >= -48
MCLinV(1,2,2):  x(1,2) - v(1,2,2) - x(2,2) = 1
MCLinV(2,1,2):  - x(1,2) - v(2,1,2) + x(2,2) = 2
MCLin1(1,2,2):  u(1,2,2) >= -0
MCLin2(1,2,2):  -44 y(2,1,2) - u(1,2,2) <= -0
MCLin3(1,2,2):  28 y(2,1,2) + v(1,2,2) - u(1,2,2) <= 28
MCLin4(1,2,2):  28 y(2,1,2) - u(1,2,2) >= -0
MCLin5(1,2,2):  -44 y(2,1,2) + v(1,2,2) - u(1,2,2) >= -44
MCLin6(2,1,2):  u(2,1,2) >= -0
MCLin7(2,1,2):  -31 y(1,2,2) - u(2,1,2) <= -0
MCLin8(2,1,2):  41 y(1,2,2) + v(2,1,2) - u(2,1,2) <= 41
MCLin9(2,1,2):  41 y(1,2,2) - u(2,1,2) >= -0
MCLin10(2,1,2):  -31 y(1,2,2) + v(2,1,2) - u(2,1,2) >= -31
makespan(0):  C - x(0,2) >= 4
makespan(1):  C - x(1,0) >= 6
makespan(2):  C - x(2,0) >= 10
basic_cuts1(12,0):  6 x(1,0) + 10 x(2,0) >= 204
basic_cuts_reverse1(12,0):  16 C -6 x(1,0) -10 x(2,0) >= 196
basic_cuts1(012,0):  10 x(0,0) + 6 x(1,0) + 10 x(2,0) >= 220
basic_cuts_reverse1(012,0):  26 C -10 x(0,0) -6 x(1,0) -10 x(2,0) >= 456
cut_clique_1(12,0):  0.01852 x(1,0) + 0.05556 x(2,0) >= 1
cut_clique_1(012,0):  0.00283 x(0,0) + 0.02212 x(1,0) + 0.04867 x(2,0) >= 1
basic_cuts1(12,1):  7 x(1,1) + 10 x(2,1) >= 70
basic_cuts1(012,1):  4 x(0,1) + 7 x(1,1) + 10 x(2,1) >= 138
basic_cuts_reverse1(012,1):  21 C -4 x(0,1) -7 x(1,1) -10 x(2,1) >= 387
cut_clique_1(12,1):  0.10000 x(1,1) + 0.08889 x(2,1) >= 1
cut_clique_1(012,1):  0.10000 x(1,1) + 0.08889 x(2,1) >= 1
cut_clique_4:  0.02516 x(0,1) + 0.05723 x(1,1) + 0.04528 x(2,1) >= 1
cut_clique_5:  0.01506 x(1,0) + 0.03313 x(2,0) + 0.00803 x(0,1) + 0.01827 x(1,1) + 0.01446 x(2,1) >= 1
Bounds
 0 <= C <= 54
 0 <= x(0,0) <= 36
 0 <= y(0,1,0) <= 1
 0 <= y(1,0,0) <= 1
 -54 <= v(0,1,0) <= 21
 -37 <= v(1,0,0) <= 38
 -540 <= u(0,1,0)
 -540 <= u(1,0,0)
 0 <= y(0,2,0) <= 1
 0 <= y(2,0,0) <= 1
 -54 <= v(0,2,0) <= 15
 -35 <= v(2,0,0) <= 34
 -540 <= u(0,2,0)
 -540 <= u(2,0,0)
 9 <= x(1,0) <= 48
 0 <= y(1,2,0) <= 1
 0 <= y(2,1,0) <= 1
 -45 <= v(1,2,0) <= 27
 -43 <= v(2,1,0) <= 29
 -540 <= u(1,2,0)
 -540 <= u(2,1,0)
 11 <= x(2,0) <= 44
 10 <= x(0,1) <= 46
 0 <= y(0,1,1) <= 1
 0 <= y(1,0,1) <= 1
 -38 <= v(0,1,1) <= 37
 -48 <= v(1,0,1) <= 27
 -540 <= u(0,1,1)
 -540 <= u(1,0,1)
 0 <= y(0,2,1) <= 1
 0 <= y(2,0,1) <= 1
 -33 <= v(0,2,1) <= 36
 -50 <= v(2,0,1) <= 19
 -540 <= u(0,2,1)
 -540 <= u(2,0,1)
 2 <= x(1,1) <= 41
 0 <= y(1,2,1) <= 1
 0 <= y(2,1,1) <= 1
 -41 <= v(1,2,1) <= 31
 -48 <= v(2,1,1) <= 24
 -540 <= u(1,2,1)
 -540 <= u(2,1,1)
 0 <= x(2,1) <= 33
 14 <= x(0,2) <= 50
 0 <= y(0,1,2) <= 1
 0 <= y(1,0,2) <= 1
 -27 <= v(0,1,2) <= 48
 -54 <= v(1,0,2) <= 21
 -540 <= u(0,1,2)
 -540 <= u(1,0,2)
 0 <= y(0,2,2) <= 1
 0 <= y(2,0,2) <= 1
 -30 <= v(0,2,2) <= 39
 -44 <= v(2,0,2) <= 25
 -540 <= u(0,2,2)
 -540 <= u(2,0,2)
 0 <= x(1,2) <= 39
 0 <= y(1,2,2) <= 1
 0 <= y(2,1,2) <= 1
 -44 <= v(1,2,2) <= 28
 -31 <= v(2,1,2) <= 41
 -540 <= u(1,2,2)
 -540 <= u(2,1,2)
 10 <= x(2,2) <= 43
Integers
C x(0,0) y(0,1,0) y(1,0,0) v(0,1,0) v(1,0,0) u(0,1,0) u(1,0,0) y(0,2,0) y(2,0,0) 
v(0,2,0) v(2,0,0) u(0,2,0) u(2,0,0) x(1,0) y(1,2,0) y(2,1,0) v(1,2,0) v(2,1,0) u(1,2,0) 
u(2,1,0) x(2,0) x(0,1) y(0,1,1) y(1,0,1) v(0,1,1) v(1,0,1) u(0,1,1) u(1,0,1) y(0,2,1) 
y(2,0,1) v(0,2,1) v(2,0,1) u(0,2,1) u(2,0,1) x(1,1) y(1,2,1) y(2,1,1) v(1,2,1) v(2,1,1) 
u(1,2,1) u(2,1,1) x(2,1) x(0,2) y(0,1,2) y(1,0,2) v(0,1,2) v(1,0,2) u(0,1,2) u(1,0,2) 
y(0,2,2) y(2,0,2) v(0,2,2) v(2,0,2) u(0,2,2) u(2,0,2) x(1,2) y(1,2,2) y(2,1,2) v(1,2,2) 
v(2,1,2) u(1,2,2) u(2,1,2) x(2,2) 
End
